p wcnf 1706 808 5
5 -1 10 
5 -2 11 
5 -3 12 
5 -4 13 
5 -5 14 
5 -6 15 
5 -7 16 
5 -8 17 
5 -9 18 
5 -19 1 
5 -20 1 
5 -21 1 
5 -22 1 
5 -23 1 
5 -24 1 
5 -25 1 
5 -26 1 
5 -27 1 
5 -19 28 
5 -19 29 
5 -20 29 
5 -20 30 
5 -21 30 
5 -21 31 
5 -22 31 
5 -22 32 
5 -23 32 
5 -23 33 
5 -24 33 
5 -24 34 
5 -25 34 
5 -25 35 
5 -26 35 
5 -26 36 
5 -27 36 
5 -27 37 
5 -38 1 
5 -39 1 
5 -40 1 
5 -41 1 
5 -42 1 
5 -43 1 
5 -44 1 
5 -45 1 
5 -46 1 
5 -38 47 
5 -38 48 
5 -38 49 
5 -39 48 
5 -39 49 
5 -39 50 
5 -40 49 
5 -40 50 
5 -40 51 
5 -41 50 
5 -41 51 
5 -41 52 
5 -42 51 
5 -42 52 
5 -42 53 
5 -43 52 
5 -43 53 
5 -43 54 
5 -44 53 
5 -44 54 
5 -44 55 
5 -45 54 
5 -45 55 
5 -45 56 
5 -46 55 
5 -46 56 
5 -46 57 
5 -58 1 
5 -59 1 
5 -60 1 
5 -61 1 
5 -62 1 
5 -63 1 
5 -64 1 
5 -65 1 
5 -66 1 
5 -58 67 
5 -58 68 
5 -58 69 
5 -58 70 
5 -59 68 
5 -59 69 
5 -59 70 
5 -59 71 
5 -60 69 
5 -60 70 
5 -60 71 
5 -60 72 
5 -61 70 
5 -61 71 
5 -61 72 
5 -61 73 
5 -62 71 
5 -62 72 
5 -62 73 
5 -62 74 
5 -63 72 
5 -63 73 
5 -63 74 
5 -63 75 
5 -64 73 
5 -64 74 
5 -64 75 
5 -64 76 
5 -65 74 
5 -65 75 
5 -65 76 
5 -65 77 
5 -66 75 
5 -66 76 
5 -66 77 
5 -66 78 
5 -79 1 
5 -80 1 
5 -81 1 
5 -82 1 
5 -83 1 
5 -84 1 
5 -85 1 
5 -86 1 
5 -87 1 
5 -79 88 
5 -79 89 
5 -79 90 
5 -79 91 
5 -79 92 
5 -80 89 
5 -80 90 
5 -80 91 
5 -80 92 
5 -80 93 
5 -81 90 
5 -81 91 
5 -81 92 
5 -81 93 
5 -81 94 
5 -82 91 
5 -82 92 
5 -82 93 
5 -82 94 
5 -82 95 
5 -83 92 
5 -83 93 
5 -83 94 
5 -83 95 
5 -83 96 
5 -84 93 
5 -84 94 
5 -84 95 
5 -84 96 
5 -84 97 
5 -85 94 
5 -85 95 
5 -85 96 
5 -85 97 
5 -85 98 
5 -86 95 
5 -86 96 
5 -86 97 
5 -86 98 
5 -86 99 
5 -87 96 
5 -87 97 
5 -87 98 
5 -87 99 
5 -87 100 
5 -101 1 
5 -102 1 
5 -103 1 
5 -104 1 
5 -105 1 
5 -106 1 
5 -107 1 
5 -108 1 
5 -109 1 
5 -101 110 
5 -101 111 
5 -101 112 
5 -101 113 
5 -101 114 
5 -101 115 
5 -102 111 
5 -102 112 
5 -102 113 
5 -102 114 
5 -102 115 
5 -102 116 
5 -103 112 
5 -103 113 
5 -103 114 
5 -103 115 
5 -103 116 
5 -103 117 
5 -104 113 
5 -104 114 
5 -104 115 
5 -104 116 
5 -104 117 
5 -104 118 
5 -105 114 
5 -105 115 
5 -105 116 
5 -105 117 
5 -105 118 
5 -105 119 
5 -106 115 
5 -106 116 
5 -106 117 
5 -106 118 
5 -106 119 
5 -106 120 
5 -107 116 
5 -107 117 
5 -107 118 
5 -107 119 
5 -107 120 
5 -107 121 
5 -108 117 
5 -108 118 
5 -108 119 
5 -108 120 
5 -108 121 
5 -108 122 
5 -109 118 
5 -109 119 
5 -109 120 
5 -109 121 
5 -109 122 
5 -109 123 
5 -124 1 
5 -125 1 
5 -126 1 
5 -127 1 
5 -128 1 
5 -129 1 
5 -130 1 
5 -131 1 
5 -132 1 
5 -124 133 
5 -124 134 
5 -124 135 
5 -124 136 
5 -124 137 
5 -124 138 
5 -124 139 
5 -125 134 
5 -125 135 
5 -125 136 
5 -125 137 
5 -125 138 
5 -125 139 
5 -125 140 
5 -126 135 
5 -126 136 
5 -126 137 
5 -126 138 
5 -126 139 
5 -126 140 
5 -126 141 
5 -127 136 
5 -127 137 
5 -127 138 
5 -127 139 
5 -127 140 
5 -127 141 
5 -127 142 
5 -128 137 
5 -128 138 
5 -128 139 
5 -128 140 
5 -128 141 
5 -128 142 
5 -128 143 
5 -129 138 
5 -129 139 
5 -129 140 
5 -129 141 
5 -129 142 
5 -129 143 
5 -129 144 
5 -130 139 
5 -130 140 
5 -130 141 
5 -130 142 
5 -130 143 
5 -130 144 
5 -130 145 
5 -131 140 
5 -131 141 
5 -131 142 
5 -131 143 
5 -131 144 
5 -131 145 
5 -131 146 
5 -132 141 
5 -132 142 
5 -132 143 
5 -132 144 
5 -132 145 
5 -132 146 
5 -132 147 
5 -148 1 
5 -149 1 
5 -150 1 
5 -151 1 
5 -152 1 
5 -153 1 
5 -154 1 
5 -155 1 
5 -156 1 
5 -148 157 
5 -148 158 
5 -148 159 
5 -148 160 
5 -148 161 
5 -148 162 
5 -148 163 
5 -148 164 
5 -149 158 
5 -149 159 
5 -149 160 
5 -149 161 
5 -149 162 
5 -149 163 
5 -149 164 
5 -149 165 
5 -150 159 
5 -150 160 
5 -150 161 
5 -150 162 
5 -150 163 
5 -150 164 
5 -150 165 
5 -150 166 
5 -151 160 
5 -151 161 
5 -151 162 
5 -151 163 
5 -151 164 
5 -151 165 
5 -151 166 
5 -151 167 
5 -152 161 
5 -152 162 
5 -152 163 
5 -152 164 
5 -152 165 
5 -152 166 
5 -152 167 
5 -152 168 
5 -153 162 
5 -153 163 
5 -153 164 
5 -153 165 
5 -153 166 
5 -153 167 
5 -153 168 
5 -153 169 
5 -154 163 
5 -154 164 
5 -154 165 
5 -154 166 
5 -154 167 
5 -154 168 
5 -154 169 
5 -154 170 
5 -155 164 
5 -155 165 
5 -155 166 
5 -155 167 
5 -155 168 
5 -155 169 
5 -155 170 
5 -155 171 
5 -156 165 
5 -156 166 
5 -156 167 
5 -156 168 
5 -156 169 
5 -156 170 
5 -156 171 
5 -156 172 
5 -173 1 
5 -174 1 
5 -175 1 
5 -176 1 
5 -177 1 
5 -178 1 
5 -179 1 
5 -180 1 
5 -181 1 
5 -173 182 
5 -173 183 
5 -173 184 
5 -173 185 
5 -173 186 
5 -173 187 
5 -173 188 
5 -173 189 
5 -173 190 
5 -174 183 
5 -174 184 
5 -174 185 
5 -174 186 
5 -174 187 
5 -174 188 
5 -174 189 
5 -174 190 
5 -174 191 
5 -175 184 
5 -175 185 
5 -175 186 
5 -175 187 
5 -175 188 
5 -175 189 
5 -175 190 
5 -175 191 
5 -175 192 
5 -176 185 
5 -176 186 
5 -176 187 
5 -176 188 
5 -176 189 
5 -176 190 
5 -176 191 
5 -176 192 
5 -176 193 
5 -177 186 
5 -177 187 
5 -177 188 
5 -177 189 
5 -177 190 
5 -177 191 
5 -177 192 
5 -177 193 
5 -177 194 
5 -178 187 
5 -178 188 
5 -178 189 
5 -178 190 
5 -178 191 
5 -178 192 
5 -178 193 
5 -178 194 
5 -178 195 
5 -179 188 
5 -179 189 
5 -179 190 
5 -179 191 
5 -179 192 
5 -179 193 
5 -179 194 
5 -179 195 
5 -179 196 
5 -180 189 
5 -180 190 
5 -180 191 
5 -180 192 
5 -180 193 
5 -180 194 
5 -180 195 
5 -180 196 
5 -180 197 
5 -181 190 
5 -181 191 
5 -181 192 
5 -181 193 
5 -181 194 
5 -181 195 
5 -181 196 
5 -181 197 
5 -181 198 
5 -199 19 
5 -200 19 
5 -201 19 
5 -202 19 
5 -203 19 
5 -204 19 
5 -205 19 
5 -206 19 
5 -199 207 
5 -199 208 
5 -200 208 
5 -200 209 
5 -201 209 
5 -201 210 
5 -202 210 
5 -202 211 
5 -203 211 
5 -203 212 
5 -204 212 
5 -204 213 
5 -205 213 
5 -205 214 
5 -206 214 
5 -206 215 
5 -216 19 
5 -217 19 
5 -218 19 
5 -219 19 
5 -220 19 
5 -221 19 
5 -222 19 
5 -223 19 
5 -216 224 
5 -216 225 
5 -216 226 
5 -217 225 
5 -217 226 
5 -217 227 
5 -218 226 
5 -218 227 
5 -218 228 
5 -219 227 
5 -219 228 
5 -219 229 
5 -220 228 
5 -220 229 
5 -220 230 
5 -221 229 
5 -221 230 
5 -221 231 
5 -222 230 
5 -222 231 
5 -222 232 
5 -223 231 
5 -223 232 
5 -223 233 
5 -234 19 
5 -235 19 
5 -236 19 
5 -237 19 
5 -238 19 
5 -239 19 
5 -240 19 
5 -241 19 
5 -234 242 
5 -234 243 
5 -234 244 
5 -234 245 
5 -235 243 
5 -235 244 
5 -235 245 
5 -235 246 
5 -236 244 
5 -236 245 
5 -236 246 
5 -236 247 
5 -237 245 
5 -237 246 
5 -237 247 
5 -237 248 
5 -238 246 
5 -238 247 
5 -238 248 
5 -238 249 
5 -239 247 
5 -239 248 
5 -239 249 
5 -239 250 
5 -240 248 
5 -240 249 
5 -240 250 
5 -240 251 
5 -241 249 
5 -241 250 
5 -241 251 
5 -241 252 
5 -253 19 
5 -254 19 
5 -255 19 
5 -256 19 
5 -257 19 
5 -258 19 
5 -259 19 
5 -260 19 
5 -253 261 
5 -253 262 
5 -253 263 
5 -253 264 
5 -253 265 
5 -254 262 
5 -254 263 
5 -254 264 
5 -254 265 
5 -254 266 
5 -255 263 
5 -255 264 
5 -255 265 
5 -255 266 
5 -255 267 
5 -256 264 
5 -256 265 
5 -256 266 
5 -256 267 
5 -256 268 
5 -257 265 
5 -257 266 
5 -257 267 
5 -257 268 
5 -257 269 
5 -258 266 
5 -258 267 
5 -258 268 
5 -258 269 
5 -258 270 
5 -259 267 
5 -259 268 
5 -259 269 
5 -259 270 
5 -259 271 
5 -260 268 
5 -260 269 
5 -260 270 
5 -260 271 
5 -260 272 
5 -273 19 
5 -274 19 
5 -275 19 
5 -276 19 
5 -277 19 
5 -278 19 
5 -279 19 
5 -280 19 
5 -273 281 
5 -273 282 
5 -273 283 
5 -273 284 
5 -273 285 
5 -273 286 
5 -274 282 
5 -274 283 
5 -274 284 
5 -274 285 
5 -274 286 
5 -274 287 
5 -275 283 
5 -275 284 
5 -275 285 
5 -275 286 
5 -275 287 
5 -275 288 
5 -276 284 
5 -276 285 
5 -276 286 
5 -276 287 
5 -276 288 
5 -276 289 
5 -277 285 
5 -277 286 
5 -277 287 
5 -277 288 
5 -277 289 
5 -277 290 
5 -278 286 
5 -278 287 
5 -278 288 
5 -278 289 
5 -278 290 
5 -278 291 
5 -279 287 
5 -279 288 
5 -279 289 
5 -279 290 
5 -279 291 
5 -279 292 
5 -280 288 
5 -280 289 
5 -280 290 
5 -280 291 
5 -280 292 
5 -280 293 
5 -294 19 
5 -295 19 
5 -296 19 
5 -297 19 
5 -298 19 
5 -299 19 
5 -300 19 
5 -301 19 
5 -294 302 
5 -294 303 
5 -294 304 
5 -294 305 
5 -294 306 
5 -294 307 
5 -294 308 
5 -295 303 
5 -295 304 
5 -295 305 
5 -295 306 
5 -295 307 
5 -295 308 
5 -295 309 
5 -296 304 
5 -296 305 
5 -296 306 
5 -296 307 
5 -296 308 
5 -296 309 
5 -296 310 
5 -297 305 
5 -297 306 
5 -297 307 
5 -297 308 
5 -297 309 
5 -297 310 
5 -297 311 
5 -298 306 
5 -298 307 
5 -298 308 
5 -298 309 
5 -298 310 
5 -298 311 
5 -298 312 
5 -299 307 
5 -299 308 
5 -299 309 
5 -299 310 
5 -299 311 
5 -299 312 
5 -299 313 
5 -300 308 
5 -300 309 
5 -300 310 
5 -300 311 
5 -300 312 
5 -300 313 
5 -300 314 
5 -301 309 
5 -301 310 
5 -301 311 
5 -301 312 
5 -301 313 
5 -301 314 
5 -301 315 
5 -316 19 
5 -317 19 
5 -318 19 
5 -319 19 
5 -320 19 
5 -321 19 
5 -322 19 
5 -323 19 
5 -316 324 
5 -316 325 
5 -316 326 
5 -316 327 
5 -316 328 
5 -316 329 
5 -316 330 
5 -316 331 
5 -317 325 
5 -317 326 
5 -317 327 
5 -317 328 
5 -317 329 
5 -317 330 
5 -317 331 
5 -317 332 
5 -318 326 
5 -318 327 
5 -318 328 
5 -318 329 
5 -318 330 
5 -318 331 
5 -318 332 
5 -318 333 
5 -319 327 
5 -319 328 
5 -319 329 
5 -319 330 
5 -319 331 
5 -319 332 
5 -319 333 
5 -319 334 
5 -320 328 
5 -320 329 
5 -320 330 
5 -320 331 
5 -320 332 
5 -320 333 
5 -320 334 
5 -320 335 
5 -321 329 
5 -321 330 
5 -321 331 
5 -321 332 
5 -321 333 
5 -321 334 
5 -321 335 
5 -321 336 
5 -322 330 
5 -322 331 
5 -322 332 
5 -322 333 
5 -322 334 
5 -322 335 
5 -322 336 
5 -322 337 
5 -323 331 
5 -323 332 
5 -323 333 
5 -323 334 
5 -323 335 
5 -323 336 
5 -323 337 
5 -323 338 
5 -339 38 199 
5 -340 38 199 
5 -341 38 199 
5 -342 38 199 
5 -343 38 199 
5 -344 38 199 
5 -345 38 199 
5 -339 346 
5 -339 347 
5 -340 347 
5 -340 348 
5 -341 348 
5 -341 349 
5 -342 349 
5 -342 350 
5 -343 350 
5 -343 351 
5 -344 351 
5 -344 352 
5 -345 352 
5 -345 353 
5 -354 38 199 
5 -355 38 199 
5 -356 38 199 
5 -357 38 199 
5 -358 38 199 
5 -359 38 199 
5 -360 38 199 
5 -354 361 
5 -354 362 
5 -354 363 
5 -355 362 
5 -355 363 
5 -355 364 
5 -356 363 
5 -356 364 
5 -356 365 
5 -357 364 
5 -357 365 
5 -357 366 
5 -358 365 
5 -358 366 
5 -358 367 
5 -359 366 
5 -359 367 
5 -359 368 
5 -360 367 
5 -360 368 
5 -360 369 
5 -370 38 199 
5 -371 38 199 
5 -372 38 199 
5 -373 38 199 
5 -374 38 199 
5 -375 38 199 
5 -376 38 199 
5 -370 377 
5 -370 378 
5 -370 379 
5 -370 380 
5 -371 378 
5 -371 379 
5 -371 380 
5 -371 381 
5 -372 379 
5 -372 380 
5 -372 381 
5 -372 382 
5 -373 380 
5 -373 381 
5 -373 382 
5 -373 383 
5 -374 381 
5 -374 382 
5 -374 383 
5 -374 384 
5 -375 382 
5 -375 383 
5 -375 384 
5 -375 385 
5 -376 383 
5 -376 384 
5 -376 385 
5 -376 386 
5 -387 38 199 
5 -388 38 199 
5 -389 38 199 
5 -390 38 199 
5 -391 38 199 
5 -392 38 199 
5 -393 38 199 
5 -387 394 
5 -387 395 
5 -387 396 
5 -387 397 
5 -387 398 
5 -388 395 
5 -388 396 
5 -388 397 
5 -388 398 
5 -388 399 
5 -389 396 
5 -389 397 
5 -389 398 
5 -389 399 
5 -389 400 
5 -390 397 
5 -390 398 
5 -390 399 
5 -390 400 
5 -390 401 
5 -391 398 
5 -391 399 
5 -391 400 
5 -391 401 
5 -391 402 
5 -392 399 
5 -392 400 
5 -392 401 
5 -392 402 
5 -392 403 
5 -393 400 
5 -393 401 
5 -393 402 
5 -393 403 
5 -393 404 
5 -405 38 199 
5 -406 38 199 
5 -407 38 199 
5 -408 38 199 
5 -409 38 199 
5 -410 38 199 
5 -411 38 199 
5 -405 412 
5 -405 413 
5 -405 414 
5 -405 415 
5 -405 416 
5 -405 417 
5 -406 413 
5 -406 414 
5 -406 415 
5 -406 416 
5 -406 417 
5 -406 418 
5 -407 414 
5 -407 415 
5 -407 416 
5 -407 417 
5 -407 418 
5 -407 419 
5 -408 415 
5 -408 416 
5 -408 417 
5 -408 418 
5 -408 419 
5 -408 420 
5 -409 416 
5 -409 417 
5 -409 418 
5 -409 419 
5 -409 420 
5 -409 421 
5 -410 417 
5 -410 418 
5 -410 419 
5 -410 420 
5 -410 421 
5 -410 422 
5 -411 418 
5 -411 419 
5 -411 420 
5 -411 421 
5 -411 422 
5 -411 423 
5 -424 38 199 
5 -425 38 199 
5 -426 38 199 
5 -427 38 199 
5 -428 38 199 
5 -429 38 199 
5 -430 38 199 
5 -424 431 
5 -424 432 
5 -424 433 
5 -424 434 
5 -424 435 
5 -424 436 
5 -424 437 
5 -425 432 
5 -425 433 
5 -425 434 
5 -425 435 
5 -425 436 
5 -425 437 
5 -425 438 
5 -426 433 
5 -426 434 
5 -426 435 
5 -426 436 
5 -426 437 
5 -426 438 
5 -426 439 
5 -427 434 
5 -427 435 
5 -427 436 
5 -427 437 
5 -427 438 
5 -427 439 
5 -427 440 
5 -428 435 
5 -428 436 
5 -428 437 
5 -428 438 
5 -428 439 
5 -428 440 
5 -428 441 
5 -429 436 
5 -429 437 
5 -429 438 
5 -429 439 
5 -429 440 
5 -429 441 
5 -429 442 
5 -430 437 
5 -430 438 
5 -430 439 
5 -430 440 
5 -430 441 
5 -430 442 
5 -430 443 
5 -444 58 216 339 
5 -445 58 216 339 
5 -446 58 216 339 
5 -447 58 216 339 
5 -448 58 216 339 
5 -449 58 216 339 
5 -444 450 
5 -444 451 
5 -445 451 
5 -445 452 
5 -446 452 
5 -446 453 
5 -447 453 
5 -447 454 
5 -448 454 
5 -448 455 
5 -449 455 
5 -449 456 
5 -457 58 216 339 
5 -458 58 216 339 
5 -459 58 216 339 
5 -460 58 216 339 
5 -461 58 216 339 
5 -462 58 216 339 
5 -457 463 
5 -457 464 
5 -457 465 
5 -458 464 
5 -458 465 
5 -458 466 
5 -459 465 
5 -459 466 
5 -459 467 
5 -460 466 
5 -460 467 
5 -460 468 
5 -461 467 
5 -461 468 
5 -461 469 
5 -462 468 
5 -462 469 
5 -462 470 
5 -471 58 216 339 
5 -472 58 216 339 
5 -473 58 216 339 
5 -474 58 216 339 
5 -475 58 216 339 
5 -476 58 216 339 
5 -471 477 
5 -471 478 
5 -471 479 
5 -471 480 
5 -472 478 
5 -472 479 
5 -472 480 
5 -472 481 
5 -473 479 
5 -473 480 
5 -473 481 
5 -473 482 
5 -474 480 
5 -474 481 
5 -474 482 
5 -474 483 
5 -475 481 
5 -475 482 
5 -475 483 
5 -475 484 
5 -476 482 
5 -476 483 
5 -476 484 
5 -476 485 
5 -486 58 216 339 
5 -487 58 216 339 
5 -488 58 216 339 
5 -489 58 216 339 
5 -490 58 216 339 
5 -491 58 216 339 
5 -486 492 
5 -486 493 
5 -486 494 
5 -486 495 
5 -486 496 
5 -487 493 
5 -487 494 
5 -487 495 
5 -487 496 
5 -487 497 
5 -488 494 
5 -488 495 
5 -488 496 
5 -488 497 
5 -488 498 
5 -489 495 
5 -489 496 
5 -489 497 
5 -489 498 
5 -489 499 
5 -490 496 
5 -490 497 
5 -490 498 
5 -490 499 
5 -490 500 
5 -491 497 
5 -491 498 
5 -491 499 
5 -491 500 
5 -491 501 
5 -502 58 216 339 
5 -503 58 216 339 
5 -504 58 216 339 
5 -505 58 216 339 
5 -506 58 216 339 
5 -507 58 216 339 
5 -502 508 
5 -502 509 
5 -502 510 
5 -502 511 
5 -502 512 
5 -502 513 
5 -503 509 
5 -503 510 
5 -503 511 
5 -503 512 
5 -503 513 
5 -503 514 
5 -504 510 
5 -504 511 
5 -504 512 
5 -504 513 
5 -504 514 
5 -504 515 
5 -505 511 
5 -505 512 
5 -505 513 
5 -505 514 
5 -505 515 
5 -505 516 
5 -506 512 
5 -506 513 
5 -506 514 
5 -506 515 
5 -506 516 
5 -506 517 
5 -507 513 
5 -507 514 
5 -507 515 
5 -507 516 
5 -507 517 
5 -507 518 
5 -519 79 234 354 444 
5 -520 79 234 354 444 
5 -521 79 234 354 444 
5 -522 79 234 354 444 
5 -523 79 234 354 444 
5 -519 524 
5 -519 525 
5 -520 525 
5 -520 526 
5 -521 526 
5 -521 527 
5 -522 527 
5 -522 528 
5 -523 528 
5 -523 529 
5 -530 79 234 354 444 
5 -531 79 234 354 444 
5 -532 79 234 354 444 
5 -533 79 234 354 444 
5 -534 79 234 354 444 
5 -530 535 
5 -530 536 
5 -530 537 
5 -531 536 
5 -531 537 
5 -531 538 
5 -532 537 
5 -532 538 
5 -532 539 
5 -533 538 
5 -533 539 
5 -533 540 
5 -534 539 
5 -534 540 
5 -534 541 
5 -542 79 234 354 444 
5 -543 79 234 354 444 
5 -544 79 234 354 444 
5 -545 79 234 354 444 
5 -546 79 234 354 444 
5 -542 547 
5 -542 548 
5 -542 549 
5 -542 550 
5 -543 548 
5 -543 549 
5 -543 550 
5 -543 551 
5 -544 549 
5 -544 550 
5 -544 551 
5 -544 552 
5 -545 550 
5 -545 551 
5 -545 552 
5 -545 553 
5 -546 551 
5 -546 552 
5 -546 553 
5 -546 554 
5 -555 79 234 354 444 
5 -556 79 234 354 444 
5 -557 79 234 354 444 
5 -558 79 234 354 444 
5 -559 79 234 354 444 
5 -555 560 
5 -555 561 
5 -555 562 
5 -555 563 
5 -555 564 
5 -556 561 
5 -556 562 
5 -556 563 
5 -556 564 
5 -556 565 
5 -557 562 
5 -557 563 
5 -557 564 
5 -557 565 
5 -557 566 
5 -558 563 
5 -558 564 
5 -558 565 
5 -558 566 
5 -558 567 
5 -559 564 
5 -559 565 
5 -559 566 
5 -559 567 
5 -559 568 
5 -569 101 253 370 457 519 
5 -570 101 253 370 457 519 
5 -571 101 253 370 457 519 
5 -572 101 253 370 457 519 
5 -569 573 
5 -569 574 
5 -570 574 
5 -570 575 
5 -571 575 
5 -571 576 
5 -572 576 
5 -572 577 
5 -578 101 253 370 457 519 
5 -579 101 253 370 457 519 
5 -580 101 253 370 457 519 
5 -581 101 253 370 457 519 
5 -578 582 
5 -578 583 
5 -578 584 
5 -579 583 
5 -579 584 
5 -579 585 
5 -580 584 
5 -580 585 
5 -580 586 
5 -581 585 
5 -581 586 
5 -581 587 
5 -588 101 253 370 457 519 
5 -589 101 253 370 457 519 
5 -590 101 253 370 457 519 
5 -591 101 253 370 457 519 
5 -588 592 
5 -588 593 
5 -588 594 
5 -588 595 
5 -589 593 
5 -589 594 
5 -589 595 
5 -589 596 
5 -590 594 
5 -590 595 
5 -590 596 
5 -590 597 
5 -591 595 
5 -591 596 
5 -591 597 
5 -591 598 
5 -599 124 273 387 471 530 569 
5 -600 124 273 387 471 530 569 
5 -601 124 273 387 471 530 569 
5 -599 602 
5 -599 603 
5 -600 603 
5 -600 604 
5 -601 604 
5 -601 605 
5 -606 124 273 387 471 530 569 
5 -607 124 273 387 471 530 569 
5 -608 124 273 387 471 530 569 
5 -606 609 
5 -606 610 
5 -606 611 
5 -607 610 
5 -607 611 
5 -607 612 
5 -608 611 
5 -608 612 
5 -608 613 
5 -614 148 294 405 486 542 578 599 
5 -615 148 294 405 486 542 578 599 
5 -614 616 
5 -614 617 
5 -615 617 
5 -615 618 
5 -619 1 
5 -620 1 
5 -621 1 
5 -622 1 
5 -623 1 
5 -624 1 
5 -625 1 
5 -626 1 
5 -627 1 
5 -619 628 
5 -619 629 
5 -620 629 
5 -620 630 
5 -621 630 
5 -621 631 
5 -622 631 
5 -622 632 
5 -623 632 
5 -623 633 
5 -624 633 
5 -624 634 
5 -625 634 
5 -625 635 
5 -626 635 
5 -626 636 
5 -627 636 
5 -627 637 
5 -638 1 
5 -639 1 
5 -640 1 
5 -641 1 
5 -642 1 
5 -643 1 
5 -644 1 
5 -645 1 
5 -646 1 
5 -638 647 
5 -638 648 
5 -638 649 
5 -639 648 
5 -639 649 
5 -639 650 
5 -640 649 
5 -640 650 
5 -640 651 
5 -641 650 
5 -641 651 
5 -641 652 
5 -642 651 
5 -642 652 
5 -642 653 
5 -643 652 
5 -643 653 
5 -643 654 
5 -644 653 
5 -644 654 
5 -644 655 
5 -645 654 
5 -645 655 
5 -645 656 
5 -646 655 
5 -646 656 
5 -646 657 
5 -658 1 
5 -659 1 
5 -660 1 
5 -661 1 
5 -662 1 
5 -663 1 
5 -664 1 
5 -665 1 
5 -666 1 
5 -658 667 
5 -658 668 
5 -658 669 
5 -658 670 
5 -659 668 
5 -659 669 
5 -659 670 
5 -659 671 
5 -660 669 
5 -660 670 
5 -660 671 
5 -660 672 
5 -661 670 
5 -661 671 
5 -661 672 
5 -661 673 
5 -662 671 
5 -662 672 
5 -662 673 
5 -662 674 
5 -663 672 
5 -663 673 
5 -663 674 
5 -663 675 
5 -664 673 
5 -664 674 
5 -664 675 
5 -664 676 
5 -665 674 
5 -665 675 
5 -665 676 
5 -665 677 
5 -666 675 
5 -666 676 
5 -666 677 
5 -666 678 
5 -679 1 
5 -680 1 
5 -681 1 
5 -682 1 
5 -683 1 
5 -684 1 
5 -685 1 
5 -686 1 
5 -687 1 
5 -679 688 
5 -679 689 
5 -679 690 
5 -679 691 
5 -679 692 
5 -680 689 
5 -680 690 
5 -680 691 
5 -680 692 
5 -680 693 
5 -681 690 
5 -681 691 
5 -681 692 
5 -681 693 
5 -681 694 
5 -682 691 
5 -682 692 
5 -682 693 
5 -682 694 
5 -682 695 
5 -683 692 
5 -683 693 
5 -683 694 
5 -683 695 
5 -683 696 
5 -684 693 
5 -684 694 
5 -684 695 
5 -684 696 
5 -684 697 
5 -685 694 
5 -685 695 
5 -685 696 
5 -685 697 
5 -685 698 
5 -686 695 
5 -686 696 
5 -686 697 
5 -686 698 
5 -686 699 
5 -687 696 
5 -687 697 
5 -687 698 
5 -687 699 
5 -687 700 
5 -701 619 
5 -702 619 
5 -703 619 
5 -704 619 
5 -705 619 
5 -706 619 
5 -707 619 
5 -708 619 
5 -701 709 
5 -701 710 
5 -702 710 
5 -702 711 
5 -703 711 
5 -703 712 
5 -704 712 
5 -704 713 
5 -705 713 
5 -705 714 
5 -706 714 
5 -706 715 
5 -707 715 
5 -707 716 
5 -708 716 
5 -708 717 
5 -718 619 
5 -719 619 
5 -720 619 
5 -721 619 
5 -722 619 
5 -723 619 
5 -724 619 
5 -725 619 
5 -718 726 
5 -718 727 
5 -718 728 
5 -719 727 
5 -719 728 
5 -719 729 
5 -720 728 
5 -720 729 
5 -720 730 
5 -721 729 
5 -721 730 
5 -721 731 
5 -722 730 
5 -722 731 
5 -722 732 
5 -723 731 
5 -723 732 
5 -723 733 
5 -724 732 
5 -724 733 
5 -724 734 
5 -725 733 
5 -725 734 
5 -725 735 
5 -736 619 
5 -737 619 
5 -738 619 
5 -739 619 
5 -740 619 
5 -741 619 
5 -742 619 
5 -743 619 
5 -736 744 
5 -736 745 
5 -736 746 
5 -736 747 
5 -737 745 
5 -737 746 
5 -737 747 
5 -737 748 
5 -738 746 
5 -738 747 
5 -738 748 
5 -738 749 
5 -739 747 
5 -739 748 
5 -739 749 
5 -739 750 
5 -740 748 
5 -740 749 
5 -740 750 
5 -740 751 
5 -741 749 
5 -741 750 
5 -741 751 
5 -741 752 
5 -742 750 
5 -742 751 
5 -742 752 
5 -742 753 
5 -743 751 
5 -743 752 
5 -743 753 
5 -743 754 
5 -755 638 701 
5 -756 638 701 
5 -757 638 701 
5 -758 638 701 
5 -759 638 701 
5 -760 638 701 
5 -761 638 701 
5 -755 762 
5 -755 763 
5 -756 763 
5 -756 764 
5 -757 764 
5 -757 765 
5 -758 765 
5 -758 766 
5 -759 766 
5 -759 767 
5 -760 767 
5 -760 768 
5 -761 768 
5 -761 769 
5 -770 638 701 
5 -771 638 701 
5 -772 638 701 
5 -773 638 701 
5 -774 638 701 
5 -775 638 701 
5 -776 638 701 
5 -770 777 
5 -770 778 
5 -770 779 
5 -771 778 
5 -771 779 
5 -771 780 
5 -772 779 
5 -772 780 
5 -772 781 
5 -773 780 
5 -773 781 
5 -773 782 
5 -774 781 
5 -774 782 
5 -774 783 
5 -775 782 
5 -775 783 
5 -775 784 
5 -776 783 
5 -776 784 
5 -776 785 
5 -786 658 718 755 
5 -787 658 718 755 
5 -788 658 718 755 
5 -789 658 718 755 
5 -790 658 718 755 
5 -791 658 718 755 
5 -786 792 
5 -786 793 
5 -787 793 
5 -787 794 
5 -788 794 
5 -788 795 
5 -789 795 
5 -789 796 
5 -790 796 
5 -790 797 
5 -791 797 
5 -791 798 
5 -799 173 174 175 176 177 178 179 180 181 316 317 318 319 320 321 322 323 424 425 426 427 428 429 430 502 503 504 505 506 507 679 736 770 786 
5 -800 173 174 175 176 177 178 179 180 181 316 317 318 319 320 321 322 323 424 425 426 427 428 429 430 502 503 504 505 506 507 679 736 770 786 
5 -801 173 174 175 176 177 178 179 180 181 316 317 318 319 320 321 322 323 424 425 426 427 428 429 430 502 503 504 505 506 507 679 736 770 786 
5 -802 173 174 175 176 177 178 179 180 181 316 317 318 319 320 321 322 323 424 425 426 427 428 429 430 502 503 504 505 506 507 679 736 770 786 
5 -803 173 174 175 176 177 178 179 180 181 316 317 318 319 320 321 322 323 424 425 426 427 428 429 430 502 503 504 505 506 507 679 736 770 786 
5 -799 804 
5 -800 805 
5 -801 806 
5 -802 807 
5 -803 808 
5 19 20 21 22 23 24 25 26 27 38 39 40 41 42 43 44 45 46 58 59 60 61 62 63 64 65 66 79 80 81 82 83 84 85 86 87 101 102 103 104 105 106 107 108 109 124 125 126 127 128 129 130 131 132 148 149 150 151 152 153 154 155 156 173 174 175 176 177 178 179 180 181 
5 19 20 21 22 23 24 25 26 27 38 39 40 41 42 43 44 45 46 58 59 60 61 62 63 64 65 66 79 80 81 82 83 84 85 86 87 101 102 103 104 105 106 107 108 109 124 125 126 127 128 129 130 131 132 148 149 150 151 152 153 154 155 156 173 174 175 176 177 178 179 180 181 199 200 201 202 203 204 205 206 216 217 218 219 220 221 222 223 234 235 236 237 238 239 240 241 253 254 255 256 257 258 259 260 273 274 275 276 277 278 279 280 294 295 296 297 298 299 300 301 316 317 318 319 320 321 322 323 
5 38 39 40 41 42 43 44 45 46 58 59 60 61 62 63 64 65 66 79 80 81 82 83 84 85 86 87 101 102 103 104 105 106 107 108 109 124 125 126 127 128 129 130 131 132 148 149 150 151 152 153 154 155 156 173 174 175 176 177 178 179 180 181 199 200 201 202 203 204 205 206 216 217 218 219 220 221 222 223 234 235 236 237 238 239 240 241 253 254 255 256 257 258 259 260 273 274 275 276 277 278 279 280 294 295 296 297 298 299 300 301 316 317 318 319 320 321 322 323 339 340 341 342 343 344 345 354 355 356 357 358 359 360 370 371 372 373 374 375 376 387 388 389 390 391 392 393 405 406 407 408 409 410 411 424 425 426 427 428 429 430 
5 58 59 60 61 62 63 64 65 66 79 80 81 82 83 84 85 86 87 101 102 103 104 105 106 107 108 109 124 125 126 127 128 129 130 131 132 148 149 150 151 152 153 154 155 156 173 174 175 176 177 178 179 180 181 216 217 218 219 220 221 222 223 234 235 236 237 238 239 240 241 253 254 255 256 257 258 259 260 273 274 275 276 277 278 279 280 294 295 296 297 298 299 300 301 316 317 318 319 320 321 322 323 339 340 341 342 343 344 345 354 355 356 357 358 359 360 370 371 372 373 374 375 376 387 388 389 390 391 392 393 405 406 407 408 409 410 411 424 425 426 427 428 429 430 444 445 446 447 448 449 457 458 459 460 461 462 471 472 473 474 475 476 486 487 488 489 490 491 502 503 504 505 506 507 
5 79 80 81 82 83 84 85 86 87 101 102 103 104 105 106 107 108 109 124 125 126 127 128 129 130 131 132 148 149 150 151 152 153 154 155 156 173 174 175 176 177 178 179 180 181 234 235 236 237 238 239 240 241 253 254 255 256 257 258 259 260 273 274 275 276 277 278 279 280 294 295 296 297 298 299 300 301 316 317 318 319 320 321 322 323 354 355 356 357 358 359 360 370 371 372 373 374 375 376 387 388 389 390 391 392 393 405 406 407 408 409 410 411 424 425 426 427 428 429 430 444 445 446 447 448 449 457 458 459 460 461 462 471 472 473 474 475 476 486 487 488 489 490 491 502 503 504 505 506 507 519 520 521 522 523 530 531 532 533 534 542 543 544 545 546 555 556 557 558 559 
5 101 102 103 104 105 106 107 108 109 124 125 126 127 128 129 130 131 132 148 149 150 151 152 153 154 155 156 173 174 175 176 177 178 179 180 181 253 254 255 256 257 258 259 260 273 274 275 276 277 278 279 280 294 295 296 297 298 299 300 301 316 317 318 319 320 321 322 323 370 371 372 373 374 375 376 387 388 389 390 391 392 393 405 406 407 408 409 410 411 424 425 426 427 428 429 430 457 458 459 460 461 462 471 472 473 474 475 476 486 487 488 489 490 491 502 503 504 505 506 507 519 520 521 522 523 530 531 532 533 534 542 543 544 545 546 555 556 557 558 559 569 570 571 572 578 579 580 581 588 589 590 591 
5 124 125 126 127 128 129 130 131 132 148 149 150 151 152 153 154 155 156 173 174 175 176 177 178 179 180 181 273 274 275 276 277 278 279 280 294 295 296 297 298 299 300 301 316 317 318 319 320 321 322 323 387 388 389 390 391 392 393 405 406 407 408 409 410 411 424 425 426 427 428 429 430 471 472 473 474 475 476 486 487 488 489 490 491 502 503 504 505 506 507 530 531 532 533 534 542 543 544 545 546 555 556 557 558 559 569 570 571 572 578 579 580 581 588 589 590 591 599 600 601 606 607 608 
5 148 149 150 151 152 153 154 155 156 173 174 175 176 177 178 179 180 181 294 295 296 297 298 299 300 301 316 317 318 319 320 321 322 323 405 406 407 408 409 410 411 424 425 426 427 428 429 430 486 487 488 489 490 491 502 503 504 505 506 507 542 543 544 545 546 555 556 557 558 559 578 579 580 581 588 589 590 591 599 600 601 606 607 608 614 615 
5 619 620 621 622 623 624 625 626 627 638 639 640 641 642 643 644 645 646 658 659 660 661 662 663 664 665 666 679 680 681 682 683 684 685 686 687 
5 619 620 621 622 623 624 625 626 627 638 639 640 641 642 643 644 645 646 658 659 660 661 662 663 664 665 666 679 680 681 682 683 684 685 686 687 701 702 703 704 705 706 707 708 718 719 720 721 722 723 724 725 736 737 738 739 740 741 742 743 
5 638 639 640 641 642 643 644 645 646 658 659 660 661 662 663 664 665 666 679 680 681 682 683 684 685 686 687 701 702 703 704 705 706 707 708 718 719 720 721 722 723 724 725 736 737 738 739 740 741 742 743 755 756 757 758 759 760 761 770 771 772 773 774 775 776 
5 658 659 660 661 662 663 664 665 666 679 680 681 682 683 684 685 686 687 718 719 720 721 722 723 724 725 736 737 738 739 740 741 742 743 755 756 757 758 759 760 761 770 771 772 773 774 775 776 786 787 788 789 790 791 
1 808 
2 807 
3 806 
4 805 
5 804 
